c User generated cnf file
p cnf 13 15
9 12 -1 0 
13 2 -7 0 
4 -5 10 0 
10 -6 5 0 
13 -11 10 0 
6 8 -3 0 
2 5 -1 0 
1 -11 11 0 
7 -2 12 0 
2 5 -9 0 
7 -7 6 0 
4 2 -3 0 
7 -13 12 0 
13 5 -1 0 
9 -2 10 0 
